c generated by sgen
p cnf 129 268
-2 -3 -4 0
-1 -3 -4 0
-1 -2 -4 0
-1 -2 -3 0
-6 -7 -8 0
-5 -7 -8 0
-5 -6 -8 0
-5 -6 -7 0
-10 -11 -12 0
-9 -11 -12 0
-9 -10 -12 0
-9 -10 -11 0
-14 -15 -16 0
-13 -15 -16 0
-13 -14 -16 0
-13 -14 -15 0
-18 -19 -20 0
-17 -19 -20 0
-17 -18 -20 0
-17 -18 -19 0
-22 -23 -24 0
-21 -23 -24 0
-21 -22 -24 0
-21 -22 -23 0
-26 -27 -28 0
-25 -27 -28 0
-25 -26 -28 0
-25 -26 -27 0
-30 -31 -32 0
-29 -31 -32 0
-29 -30 -32 0
-29 -30 -31 0
-34 -35 -36 0
-33 -35 -36 0
-33 -34 -36 0
-33 -34 -35 0
-38 -39 -40 0
-37 -39 -40 0
-37 -38 -40 0
-37 -38 -39 0
-42 -43 -44 0
-41 -43 -44 0
-41 -42 -44 0
-41 -42 -43 0
-46 -47 -48 0
-45 -47 -48 0
-45 -46 -48 0
-45 -46 -47 0
-50 -51 -52 0
-49 -51 -52 0
-49 -50 -52 0
-49 -50 -51 0
-54 -55 -56 0
-53 -55 -56 0
-53 -54 -56 0
-53 -54 -55 0
-58 -59 -60 0
-57 -59 -60 0
-57 -58 -60 0
-57 -58 -59 0
-62 -63 -64 0
-61 -63 -64 0
-61 -62 -64 0
-61 -62 -63 0
-66 -67 -68 0
-65 -67 -68 0
-65 -66 -68 0
-65 -66 -67 0
-70 -71 -72 0
-69 -71 -72 0
-69 -70 -72 0
-69 -70 -71 0
-74 -75 -76 0
-73 -75 -76 0
-73 -74 -76 0
-73 -74 -75 0
-78 -79 -80 0
-77 -79 -80 0
-77 -78 -80 0
-77 -78 -79 0
-82 -83 -84 0
-81 -83 -84 0
-81 -82 -84 0
-81 -82 -83 0
-86 -87 -88 0
-85 -87 -88 0
-85 -86 -88 0
-85 -86 -87 0
-90 -91 -92 0
-89 -91 -92 0
-89 -90 -92 0
-89 -90 -91 0
-94 -95 -96 0
-93 -95 -96 0
-93 -94 -96 0
-93 -94 -95 0
-98 -99 -100 0
-97 -99 -100 0
-97 -98 -100 0
-97 -98 -99 0
-102 -103 -104 0
-101 -103 -104 0
-101 -102 -104 0
-101 -102 -103 0
-106 -107 -108 0
-105 -107 -108 0
-105 -106 -108 0
-105 -106 -107 0
-110 -111 -112 0
-109 -111 -112 0
-109 -110 -112 0
-109 -110 -111 0
-114 -115 -116 0
-113 -115 -116 0
-113 -114 -116 0
-113 -114 -115 0
-118 -119 -120 0
-117 -119 -120 0
-117 -118 -120 0
-117 -118 -119 0
-122 -123 -124 0
-121 -123 -124 0
-121 -122 -124 0
-121 -122 -123 0
-125 -126 -127 0
-125 -126 -128 0
-125 -126 -129 0
-125 -127 -128 0
-125 -127 -129 0
-125 -128 -129 0
-126 -127 -128 0
-126 -127 -129 0
-126 -128 -129 0
-127 -128 -129 0
24 18 103 0
5 18 103 0
5 24 103 0
5 24 18 0
115 94 56 0
45 94 56 0
45 115 56 0
45 115 94 0
23 89 126 0
120 89 126 0
120 23 126 0
120 23 89 0
108 118 38 0
71 118 38 0
71 108 38 0
71 108 118 0
78 58 26 0
116 58 26 0
116 78 26 0
116 78 58 0
123 82 2 0
47 82 2 0
47 123 2 0
47 123 82 0
30 111 27 0
21 111 27 0
21 30 27 0
21 30 111 0
12 4 43 0
37 4 43 0
37 12 43 0
37 12 4 0
31 17 48 0
119 17 48 0
119 31 48 0
119 31 17 0
63 53 52 0
109 53 52 0
109 63 52 0
109 63 53 0
86 28 76 0
128 28 76 0
128 86 76 0
128 86 28 0
68 83 19 0
64 83 19 0
64 68 19 0
64 68 83 0
67 34 10 0
129 34 10 0
129 67 10 0
129 67 34 0
7 81 51 0
73 81 51 0
73 7 51 0
73 7 81 0
50 91 20 0
57 91 20 0
57 50 20 0
57 50 91 0
72 85 49 0
113 85 49 0
113 72 49 0
113 72 85 0
22 93 40 0
98 93 40 0
98 22 40 0
98 22 93 0
77 90 100 0
13 90 100 0
13 77 100 0
13 77 90 0
112 65 106 0
44 65 106 0
44 112 106 0
44 112 65 0
16 96 59 0
125 96 59 0
125 16 59 0
125 16 96 0
124 127 114 0
62 127 114 0
62 124 114 0
62 124 127 0
104 61 9 0
79 61 9 0
79 104 9 0
79 104 61 0
35 117 110 0
87 117 110 0
87 35 110 0
87 35 117 0
107 3 88 0
80 3 88 0
80 107 88 0
80 107 3 0
97 74 42 0
32 74 42 0
32 97 42 0
32 97 74 0
75 14 55 0
1 14 55 0
1 75 55 0
1 75 14 0
102 39 66 0
15 39 66 0
15 102 66 0
15 102 39 0
84 54 60 0
70 54 60 0
70 84 60 0
70 84 54 0
69 8 99 0
121 8 99 0
121 69 99 0
121 69 8 0
101 46 41 0
36 46 41 0
36 101 41 0
36 101 46 0
122 11 105 0
25 11 105 0
25 122 105 0
25 122 11 0
92 6 29 0
92 6 33 0
92 6 95 0
92 29 33 0
92 29 95 0
92 33 95 0
6 29 33 0
6 29 95 0
6 33 95 0
29 33 95 0
